circuit_heights=[3, 4, 5, 6, 7, 8, 9, 10, 11, 13, 14, 16, 19, 25, 3, 4, 6, 8, 9, 30];
circuit_widths=[3, 3, 3, 3, 3, 3, 3, 3, 3, 3, 3, 3, 3, 3, 4, 4, 4, 4, 4, 11];
max_height=210;
min_height=30;
n_circuits=20;
plate_width=30;
